(set-info :source |printed by MathSAT|)
(declare-fun .x.14 () Int)
(declare-fun .x.15 () Int)
(declare-fun main@%.0.i_0_0 () Int)
(declare-fun .x.16 () Int)
(declare-fun main@%_1_0_0 () Int)
(declare-fun main@%_1_1 () Int)
(declare-fun main@%assume.flag.0_0_0 () Bool)
(declare-fun .x.17 () Bool)
(declare-fun main@%_4_0_0 () Int)
(declare-fun main@%_4_1 () Int)
(declare-fun main@%shadow.mem.0.6_0_0 () (Array Int Int))
(declare-fun .x.18 () (Array Int Int))
(declare-fun main@%_3_0_0 () Bool)
(declare-fun main@%_3_1 () Bool)
(declare-fun main@%.5.i1_0_0 () Int)
(declare-fun .x.19 () Int)
(declare-fun main@%shadow.mem.0.5_0_0 () (Array Int Int))
(declare-fun .x.20 () (Array Int Int))
(declare-fun main@%_2_0_0 () Bool)
(declare-fun main@%_2_1 () Bool)
(declare-fun main@%.4.i2_0_0 () Int)
(declare-fun .x.21 () Int)
(declare-fun main@%shadow.mem.0.4_0_0 () (Array Int Int))
(declare-fun .x.22 () (Array Int Int))
(declare-fun main@%.3.i6_0_0 () Int)
(declare-fun .x.23 () Int)
(declare-fun main@%shadow.mem.0.3_0_0 () (Array Int Int))
(declare-fun .x.24 () (Array Int Int))
(declare-fun main@%.2.i10_0_0 () Int)
(declare-fun .x.25 () Int)
(declare-fun main@%shadow.mem.0.2_0_0 () (Array Int Int))
(declare-fun .x.26 () (Array Int Int))
(declare-fun main@%.1.i14_0_0 () Int)
(declare-fun .x.27 () Int)
(declare-fun main@%shadow.mem.0.1_0_0 () (Array Int Int))
(declare-fun .x.28 () (Array Int Int))
(declare-fun main@%.01.i18_0_0 () Int)
(declare-fun main@%.01.i18_2 () Int)
(declare-fun main@%shadow.mem.0.0_0_0 () (Array Int Int))
(declare-fun main@%shadow.mem.0.0_2 () (Array Int Int))
(declare-fun @nd_0_0 () Int)
(declare-fun .x.29 () Int)
(define-fun .def_8 () Int (! .x.14 :next |.x.15|))
(define-fun .def_10 () Int (! main@%.0.i_0_0 :next |.x.16|))
(define-fun .def_12 () Int (! main@%_1_0_0 :next |main@%_1_1|))
(define-fun .def_14 () Bool (! main@%assume.flag.0_0_0 :next |.x.17|))
(define-fun .def_16 () Int (! main@%_4_0_0 :next |main@%_4_1|))
(define-fun .def_18 () (Array Int Int) (! main@%shadow.mem.0.6_0_0 :next |.x.18|))
(define-fun .def_20 () Bool (! main@%_3_0_0 :next |main@%_3_1|))
(define-fun .def_22 () Int (! main@%.5.i1_0_0 :next |.x.19|))
(define-fun .def_24 () (Array Int Int) (! main@%shadow.mem.0.5_0_0 :next |.x.20|))
(define-fun .def_26 () Bool (! main@%_2_0_0 :next |main@%_2_1|))
(define-fun .def_28 () Int (! main@%.4.i2_0_0 :next |.x.21|))
(define-fun .def_30 () (Array Int Int) (! main@%shadow.mem.0.4_0_0 :next |.x.22|))
(define-fun .def_32 () Int (! main@%.3.i6_0_0 :next |.x.23|))
(define-fun .def_34 () (Array Int Int) (! main@%shadow.mem.0.3_0_0 :next |.x.24|))
(define-fun .def_36 () Int (! main@%.2.i10_0_0 :next |.x.25|))
(define-fun .def_38 () (Array Int Int) (! main@%shadow.mem.0.2_0_0 :next |.x.26|))
(define-fun .def_40 () Int (! main@%.1.i14_0_0 :next |.x.27|))
(define-fun .def_42 () (Array Int Int) (! main@%shadow.mem.0.1_0_0 :next |.x.28|))
(define-fun .def_44 () Int (! main@%.01.i18_0_0 :next |main@%.01.i18_2|))
(define-fun .def_46 () (Array Int Int) (! main@%shadow.mem.0.0_0_0 :next |main@%shadow.mem.0.0_2|))
(define-fun .def_48 () Int (! @nd_0_0 :next |.x.29|))
(define-fun .def_576 () Bool (! (= .def_8 0) :init true))
(define-fun .def_603 () Bool (= .def_48 .x.29))
(define-fun .def_573 () Bool (<= main@%_4_1 0))
(define-fun .def_574 () Bool (not .def_573))
(define-fun .def_569 () Bool (<= main@%_1_1 0))
(define-fun .def_570 () Bool (not .def_569))
(define-fun .def_571 () Bool (= main@%_2_1 .def_570))
(define-fun .def_568 () Bool (= main@%_3_1 main@%_2_1))
(define-fun .def_572 () Bool (and .def_568 .def_571))
(define-fun .def_575 () Bool (and .def_572 .def_574))
(define-fun .def_577 () Bool (and .def_575 .def_576))
(define-fun .def_565 () Bool (= main@%.01.i18_2 0))
(define-fun .def_534 () Bool (= .x.15 1))
(define-fun .def_561 () Bool (and main@%_2_1 .def_534))
(define-fun .def_50 () Bool (= .def_10 .x.16))
(define-fun .def_562 () Bool (and .def_50 .def_561))
(define-fun .def_52 () Bool (= .def_14 .x.17))
(define-fun .def_563 () Bool (and .def_52 .def_562))
(define-fun .def_54 () Bool (= .def_18 .x.18))
(define-fun .def_564 () Bool (and .def_54 .def_563))
(define-fun .def_566 () Bool (and .def_564 .def_565))
(define-fun .def_555 () Bool (= .x.17 main@%_3_1))
(define-fun .def_154 () Bool (= .x.16 0))
(define-fun .def_556 () Bool (and .def_154 .def_555))
(define-fun .def_554 () Bool (not main@%_2_1))
(define-fun .def_557 () Bool (and .def_554 .def_556))
(define-fun .def_121 () Bool (= .x.15 7))
(define-fun .def_558 () Bool (and .def_121 .def_557))
(define-fun .def_76 () Bool (= .def_44 main@%.01.i18_2))
(define-fun .def_559 () Bool (and .def_76 .def_558))
(define-fun .def_78 () Bool (= .def_46 main@%shadow.mem.0.0_2))
(define-fun .def_560 () Bool (and .def_78 .def_559))
(define-fun .def_567 () Bool (or .def_560 .def_566))
(define-fun .def_578 () Bool (and .def_567 .def_577))
(define-fun .def_497 () Int (* (- 1) .def_44))
(define-fun .def_498 () Int (+ .def_12 .def_497))
(define-fun .def_499 () Bool (<= .def_498 1))
(define-fun .def_545 () Bool (not .def_499))
(define-fun .def_541 () Int (* (- 1) main@%.01.i18_2))
(define-fun .def_542 () Int (+ .def_44 .def_541))
(define-fun .def_543 () Bool (= .def_542 (- 1)))
(define-fun .def_502 () Int (+ .def_16 .def_44))
(define-fun .def_515 () (Array Int Int) (store .def_46 .def_502 42))
(define-fun .def_538 () Bool (= main@%shadow.mem.0.0_2 .def_515))
(define-fun .def_535 () Bool (and .def_50 .def_534))
(define-fun .def_536 () Bool (and .def_52 .def_535))
(define-fun .def_537 () Bool (and .def_54 .def_536))
(define-fun .def_539 () Bool (and .def_537 .def_538))
(define-fun .def_544 () Bool (and .def_539 .def_543))
(define-fun .def_546 () Bool (and .def_544 .def_545))
(define-fun .def_81 () Bool (<= .def_16 0))
(define-fun .def_82 () Bool (not .def_81))
(define-fun .def_547 () Bool (and .def_82 .def_546))
(define-fun .def_503 () Bool (<= .def_502 0))
(define-fun .def_504 () Bool (not .def_503))
(define-fun .def_505 () Bool (or .def_81 .def_504))
(define-fun .def_548 () Bool (and .def_505 .def_547))
(define-fun .def_507 () Bool (= .def_8 1))
(define-fun .def_549 () Bool (and .def_507 .def_548))
(define-fun .def_84 () Bool (= .def_12 main@%_1_1))
(define-fun .def_550 () Bool (and .def_84 .def_549))
(define-fun .def_86 () Bool (= .def_16 main@%_4_1))
(define-fun .def_551 () Bool (and .def_86 .def_550))
(define-fun .def_88 () Bool (= .def_20 main@%_3_1))
(define-fun .def_552 () Bool (and .def_88 .def_551))
(define-fun .def_90 () Bool (= .def_26 main@%_2_1))
(define-fun .def_553 () Bool (and .def_90 .def_552))
(define-fun .def_579 () Bool (or .def_553 .def_578))
(define-fun .def_74 () Bool (= .def_42 .x.28))
(define-fun .def_72 () Bool (= .def_40 .x.27))
(define-fun .def_492 () Bool (and .def_72 .def_74))
(define-fun .def_580 () Bool (and .def_492 .def_579))
(define-fun .def_531 () Bool (= .x.27 0))
(define-fun .def_529 () Bool (= .x.28 .def_515))
(define-fun .def_225 () Bool (and .def_26 .def_50))
(define-fun .def_226 () Bool (and .def_52 .def_225))
(define-fun .def_227 () Bool (and .def_54 .def_226))
(define-fun .def_519 () Bool (and .def_76 .def_227))
(define-fun .def_520 () Bool (and .def_78 .def_519))
(define-fun .def_521 () Bool (and .def_499 .def_520))
(define-fun .def_522 () Bool (and .def_82 .def_521))
(define-fun .def_523 () Bool (and .def_505 .def_522))
(define-fun .def_524 () Bool (and .def_507 .def_523))
(define-fun .def_525 () Bool (and .def_84 .def_524))
(define-fun .def_526 () Bool (and .def_86 .def_525))
(define-fun .def_527 () Bool (and .def_88 .def_526))
(define-fun .def_528 () Bool (and .def_90 .def_527))
(define-fun .def_530 () Bool (and .def_528 .def_529))
(define-fun .def_532 () Bool (and .def_530 .def_531))
(define-fun .def_480 () Bool (= .x.15 2))
(define-fun .def_533 () Bool (and .def_480 .def_532))
(define-fun .def_581 () Bool (or .def_533 .def_580))
(define-fun .def_516 () Bool (= .x.18 .def_515))
(define-fun .def_493 () Bool (and .def_154 .def_492))
(define-fun .def_494 () Bool (and .def_121 .def_493))
(define-fun .def_495 () Bool (and .def_76 .def_494))
(define-fun .def_496 () Bool (and .def_78 .def_495))
(define-fun .def_500 () Bool (and .def_496 .def_499))
(define-fun .def_501 () Bool (and .def_82 .def_500))
(define-fun .def_506 () Bool (and .def_501 .def_505))
(define-fun .def_508 () Bool (and .def_506 .def_507))
(define-fun .def_509 () Bool (and .def_84 .def_508))
(define-fun .def_510 () Bool (and .def_86 .def_509))
(define-fun .def_511 () Bool (and .def_88 .def_510))
(define-fun .def_512 () Bool (and .def_90 .def_511))
(define-fun .def_164 () Bool (= .x.17 .def_20))
(define-fun .def_513 () Bool (and .def_164 .def_512))
(define-fun .def_517 () Bool (and .def_513 .def_516))
(define-fun .def_207 () Bool (not .def_26))
(define-fun .def_518 () Bool (and .def_207 .def_517))
(define-fun .def_582 () Bool (or .def_518 .def_581))
(define-fun .def_440 () Int (* (- 1) .def_40))
(define-fun .def_441 () Int (+ .def_12 .def_440))
(define-fun .def_442 () Bool (<= .def_441 1))
(define-fun .def_488 () Bool (not .def_442))
(define-fun .def_484 () Int (* (- 1) .x.27))
(define-fun .def_485 () Int (+ .def_40 .def_484))
(define-fun .def_486 () Bool (= .def_485 (- 1)))
(define-fun .def_444 () Int (+ .def_16 .def_40))
(define-fun .def_453 () (Array Int Int) (store .def_42 .def_444 43))
(define-fun .def_482 () Bool (= .x.28 .def_453))
(define-fun .def_178 () Bool (and .def_50 .def_52))
(define-fun .def_179 () Bool (and .def_54 .def_178))
(define-fun .def_473 () Bool (and .def_76 .def_179))
(define-fun .def_474 () Bool (and .def_78 .def_473))
(define-fun .def_475 () Bool (and .def_82 .def_474))
(define-fun .def_476 () Bool (and .def_84 .def_475))
(define-fun .def_477 () Bool (and .def_86 .def_476))
(define-fun .def_478 () Bool (and .def_88 .def_477))
(define-fun .def_479 () Bool (and .def_90 .def_478))
(define-fun .def_481 () Bool (and .def_479 .def_480))
(define-fun .def_483 () Bool (and .def_481 .def_482))
(define-fun .def_487 () Bool (and .def_483 .def_486))
(define-fun .def_489 () Bool (and .def_487 .def_488))
(define-fun .def_445 () Bool (<= .def_444 0))
(define-fun .def_446 () Bool (not .def_445))
(define-fun .def_447 () Bool (or .def_81 .def_446))
(define-fun .def_490 () Bool (and .def_447 .def_489))
(define-fun .def_450 () Bool (= .def_8 2))
(define-fun .def_491 () Bool (and .def_450 .def_490))
(define-fun .def_583 () Bool (or .def_491 .def_582))
(define-fun .def_70 () Bool (= .def_38 .x.26))
(define-fun .def_68 () Bool (= .def_36 .x.25))
(define-fun .def_426 () Bool (and .def_68 .def_70))
(define-fun .def_584 () Bool (and .def_426 .def_583))
(define-fun .def_470 () Bool (= .x.25 0))
(define-fun .def_468 () Bool (= .x.26 .def_453))
(define-fun .def_456 () Bool (and .def_72 .def_227))
(define-fun .def_457 () Bool (and .def_74 .def_456))
(define-fun .def_458 () Bool (and .def_76 .def_457))
(define-fun .def_459 () Bool (and .def_78 .def_458))
(define-fun .def_460 () Bool (and .def_82 .def_459))
(define-fun .def_461 () Bool (and .def_84 .def_460))
(define-fun .def_462 () Bool (and .def_86 .def_461))
(define-fun .def_463 () Bool (and .def_88 .def_462))
(define-fun .def_464 () Bool (and .def_90 .def_463))
(define-fun .def_465 () Bool (and .def_442 .def_464))
(define-fun .def_466 () Bool (and .def_447 .def_465))
(define-fun .def_467 () Bool (and .def_450 .def_466))
(define-fun .def_469 () Bool (and .def_467 .def_468))
(define-fun .def_471 () Bool (and .def_469 .def_470))
(define-fun .def_414 () Bool (= .x.15 3))
(define-fun .def_472 () Bool (and .def_414 .def_471))
(define-fun .def_585 () Bool (or .def_472 .def_584))
(define-fun .def_454 () Bool (= .x.18 .def_453))
(define-fun .def_427 () Bool (and .def_72 .def_426))
(define-fun .def_428 () Bool (and .def_74 .def_427))
(define-fun .def_429 () Bool (and .def_154 .def_428))
(define-fun .def_430 () Bool (and .def_121 .def_429))
(define-fun .def_431 () Bool (and .def_76 .def_430))
(define-fun .def_432 () Bool (and .def_78 .def_431))
(define-fun .def_433 () Bool (and .def_82 .def_432))
(define-fun .def_434 () Bool (and .def_84 .def_433))
(define-fun .def_435 () Bool (and .def_86 .def_434))
(define-fun .def_436 () Bool (and .def_88 .def_435))
(define-fun .def_437 () Bool (and .def_90 .def_436))
(define-fun .def_438 () Bool (and .def_164 .def_437))
(define-fun .def_439 () Bool (and .def_207 .def_438))
(define-fun .def_443 () Bool (and .def_439 .def_442))
(define-fun .def_448 () Bool (and .def_443 .def_447))
(define-fun .def_451 () Bool (and .def_448 .def_450))
(define-fun .def_455 () Bool (and .def_451 .def_454))
(define-fun .def_586 () Bool (or .def_455 .def_585))
(define-fun .def_370 () Int (* (- 1) .def_36))
(define-fun .def_371 () Int (+ .def_12 .def_370))
(define-fun .def_372 () Bool (<= .def_371 1))
(define-fun .def_422 () Bool (not .def_372))
(define-fun .def_418 () Int (* (- 1) .x.25))
(define-fun .def_419 () Int (+ .def_36 .def_418))
(define-fun .def_420 () Bool (= .def_419 (- 1)))
(define-fun .def_374 () Int (+ .def_16 .def_36))
(define-fun .def_383 () (Array Int Int) (store .def_38 .def_374 44))
(define-fun .def_416 () Bool (= .x.26 .def_383))
(define-fun .def_405 () Bool (and .def_72 .def_179))
(define-fun .def_406 () Bool (and .def_74 .def_405))
(define-fun .def_407 () Bool (and .def_76 .def_406))
(define-fun .def_408 () Bool (and .def_78 .def_407))
(define-fun .def_409 () Bool (and .def_82 .def_408))
(define-fun .def_410 () Bool (and .def_84 .def_409))
(define-fun .def_411 () Bool (and .def_86 .def_410))
(define-fun .def_412 () Bool (and .def_88 .def_411))
(define-fun .def_413 () Bool (and .def_90 .def_412))
(define-fun .def_415 () Bool (and .def_413 .def_414))
(define-fun .def_417 () Bool (and .def_415 .def_416))
(define-fun .def_421 () Bool (and .def_417 .def_420))
(define-fun .def_423 () Bool (and .def_421 .def_422))
(define-fun .def_375 () Bool (<= .def_374 0))
(define-fun .def_376 () Bool (not .def_375))
(define-fun .def_377 () Bool (or .def_81 .def_376))
(define-fun .def_424 () Bool (and .def_377 .def_423))
(define-fun .def_380 () Bool (= .def_8 3))
(define-fun .def_425 () Bool (and .def_380 .def_424))
(define-fun .def_587 () Bool (or .def_425 .def_586))
(define-fun .def_66 () Bool (= .def_34 .x.24))
(define-fun .def_64 () Bool (= .def_32 .x.23))
(define-fun .def_354 () Bool (and .def_64 .def_66))
(define-fun .def_588 () Bool (and .def_354 .def_587))
(define-fun .def_402 () Bool (= .x.23 0))
(define-fun .def_400 () Bool (= .x.24 .def_383))
(define-fun .def_386 () Bool (and .def_68 .def_227))
(define-fun .def_387 () Bool (and .def_70 .def_386))
(define-fun .def_388 () Bool (and .def_72 .def_387))
(define-fun .def_389 () Bool (and .def_74 .def_388))
(define-fun .def_390 () Bool (and .def_76 .def_389))
(define-fun .def_391 () Bool (and .def_78 .def_390))
(define-fun .def_392 () Bool (and .def_82 .def_391))
(define-fun .def_393 () Bool (and .def_84 .def_392))
(define-fun .def_394 () Bool (and .def_86 .def_393))
(define-fun .def_395 () Bool (and .def_88 .def_394))
(define-fun .def_396 () Bool (and .def_90 .def_395))
(define-fun .def_397 () Bool (and .def_372 .def_396))
(define-fun .def_398 () Bool (and .def_377 .def_397))
(define-fun .def_399 () Bool (and .def_380 .def_398))
(define-fun .def_401 () Bool (and .def_399 .def_400))
(define-fun .def_403 () Bool (and .def_401 .def_402))
(define-fun .def_342 () Bool (= .x.15 4))
(define-fun .def_404 () Bool (and .def_342 .def_403))
(define-fun .def_589 () Bool (or .def_404 .def_588))
(define-fun .def_384 () Bool (= .x.18 .def_383))
(define-fun .def_355 () Bool (and .def_68 .def_354))
(define-fun .def_356 () Bool (and .def_70 .def_355))
(define-fun .def_357 () Bool (and .def_72 .def_356))
(define-fun .def_358 () Bool (and .def_74 .def_357))
(define-fun .def_359 () Bool (and .def_154 .def_358))
(define-fun .def_360 () Bool (and .def_121 .def_359))
(define-fun .def_361 () Bool (and .def_76 .def_360))
(define-fun .def_362 () Bool (and .def_78 .def_361))
(define-fun .def_363 () Bool (and .def_82 .def_362))
(define-fun .def_364 () Bool (and .def_84 .def_363))
(define-fun .def_365 () Bool (and .def_86 .def_364))
(define-fun .def_366 () Bool (and .def_88 .def_365))
(define-fun .def_367 () Bool (and .def_90 .def_366))
(define-fun .def_368 () Bool (and .def_164 .def_367))
(define-fun .def_369 () Bool (and .def_207 .def_368))
(define-fun .def_373 () Bool (and .def_369 .def_372))
(define-fun .def_378 () Bool (and .def_373 .def_377))
(define-fun .def_381 () Bool (and .def_378 .def_380))
(define-fun .def_385 () Bool (and .def_381 .def_384))
(define-fun .def_590 () Bool (or .def_385 .def_589))
(define-fun .def_294 () Int (* (- 1) .def_32))
(define-fun .def_295 () Int (+ .def_12 .def_294))
(define-fun .def_296 () Bool (<= .def_295 1))
(define-fun .def_350 () Bool (not .def_296))
(define-fun .def_346 () Int (* (- 1) .x.23))
(define-fun .def_347 () Int (+ .def_32 .def_346))
(define-fun .def_348 () Bool (= .def_347 (- 1)))
(define-fun .def_298 () Int (+ .def_16 .def_32))
(define-fun .def_307 () (Array Int Int) (store .def_34 .def_298 45))
(define-fun .def_344 () Bool (= .x.24 .def_307))
(define-fun .def_331 () Bool (and .def_68 .def_179))
(define-fun .def_332 () Bool (and .def_70 .def_331))
(define-fun .def_333 () Bool (and .def_72 .def_332))
(define-fun .def_334 () Bool (and .def_74 .def_333))
(define-fun .def_335 () Bool (and .def_76 .def_334))
(define-fun .def_336 () Bool (and .def_78 .def_335))
(define-fun .def_337 () Bool (and .def_82 .def_336))
(define-fun .def_338 () Bool (and .def_84 .def_337))
(define-fun .def_339 () Bool (and .def_86 .def_338))
(define-fun .def_340 () Bool (and .def_88 .def_339))
(define-fun .def_341 () Bool (and .def_90 .def_340))
(define-fun .def_343 () Bool (and .def_341 .def_342))
(define-fun .def_345 () Bool (and .def_343 .def_344))
(define-fun .def_349 () Bool (and .def_345 .def_348))
(define-fun .def_351 () Bool (and .def_349 .def_350))
(define-fun .def_299 () Bool (<= .def_298 0))
(define-fun .def_300 () Bool (not .def_299))
(define-fun .def_301 () Bool (or .def_81 .def_300))
(define-fun .def_352 () Bool (and .def_301 .def_351))
(define-fun .def_304 () Bool (= .def_8 4))
(define-fun .def_353 () Bool (and .def_304 .def_352))
(define-fun .def_591 () Bool (or .def_353 .def_590))
(define-fun .def_62 () Bool (= .def_30 .x.22))
(define-fun .def_60 () Bool (= .def_28 .x.21))
(define-fun .def_276 () Bool (and .def_60 .def_62))
(define-fun .def_592 () Bool (and .def_276 .def_591))
(define-fun .def_328 () Bool (= .x.21 0))
(define-fun .def_326 () Bool (= .x.22 .def_307))
(define-fun .def_310 () Bool (and .def_64 .def_227))
(define-fun .def_311 () Bool (and .def_66 .def_310))
(define-fun .def_312 () Bool (and .def_68 .def_311))
(define-fun .def_313 () Bool (and .def_70 .def_312))
(define-fun .def_314 () Bool (and .def_72 .def_313))
(define-fun .def_315 () Bool (and .def_74 .def_314))
(define-fun .def_316 () Bool (and .def_76 .def_315))
(define-fun .def_317 () Bool (and .def_78 .def_316))
(define-fun .def_318 () Bool (and .def_82 .def_317))
(define-fun .def_319 () Bool (and .def_84 .def_318))
(define-fun .def_320 () Bool (and .def_86 .def_319))
(define-fun .def_321 () Bool (and .def_88 .def_320))
(define-fun .def_322 () Bool (and .def_90 .def_321))
(define-fun .def_323 () Bool (and .def_296 .def_322))
(define-fun .def_324 () Bool (and .def_301 .def_323))
(define-fun .def_325 () Bool (and .def_304 .def_324))
(define-fun .def_327 () Bool (and .def_325 .def_326))
(define-fun .def_329 () Bool (and .def_327 .def_328))
(define-fun .def_264 () Bool (= .x.15 5))
(define-fun .def_330 () Bool (and .def_264 .def_329))
(define-fun .def_593 () Bool (or .def_330 .def_592))
(define-fun .def_308 () Bool (= .x.18 .def_307))
(define-fun .def_277 () Bool (and .def_64 .def_276))
(define-fun .def_278 () Bool (and .def_66 .def_277))
(define-fun .def_279 () Bool (and .def_68 .def_278))
(define-fun .def_280 () Bool (and .def_70 .def_279))
(define-fun .def_281 () Bool (and .def_72 .def_280))
(define-fun .def_282 () Bool (and .def_74 .def_281))
(define-fun .def_283 () Bool (and .def_154 .def_282))
(define-fun .def_284 () Bool (and .def_121 .def_283))
(define-fun .def_285 () Bool (and .def_76 .def_284))
(define-fun .def_286 () Bool (and .def_78 .def_285))
(define-fun .def_287 () Bool (and .def_82 .def_286))
(define-fun .def_288 () Bool (and .def_84 .def_287))
(define-fun .def_289 () Bool (and .def_86 .def_288))
(define-fun .def_290 () Bool (and .def_88 .def_289))
(define-fun .def_291 () Bool (and .def_90 .def_290))
(define-fun .def_292 () Bool (and .def_164 .def_291))
(define-fun .def_293 () Bool (and .def_207 .def_292))
(define-fun .def_297 () Bool (and .def_293 .def_296))
(define-fun .def_302 () Bool (and .def_297 .def_301))
(define-fun .def_305 () Bool (and .def_302 .def_304))
(define-fun .def_309 () Bool (and .def_305 .def_308))
(define-fun .def_594 () Bool (or .def_309 .def_593))
(define-fun .def_209 () Int (* (- 1) .def_28))
(define-fun .def_210 () Int (+ .def_12 .def_209))
(define-fun .def_211 () Bool (<= .def_210 1))
(define-fun .def_272 () Bool (not .def_211))
(define-fun .def_268 () Int (* (- 1) .x.21))
(define-fun .def_269 () Int (+ .def_28 .def_268))
(define-fun .def_270 () Bool (= .def_269 (- 1)))
(define-fun .def_213 () Int (+ .def_16 .def_28))
(define-fun .def_222 () (Array Int Int) (store .def_30 .def_213 46))
(define-fun .def_266 () Bool (= .x.22 .def_222))
(define-fun .def_251 () Bool (and .def_64 .def_179))
(define-fun .def_252 () Bool (and .def_66 .def_251))
(define-fun .def_253 () Bool (and .def_68 .def_252))
(define-fun .def_254 () Bool (and .def_70 .def_253))
(define-fun .def_255 () Bool (and .def_72 .def_254))
(define-fun .def_256 () Bool (and .def_74 .def_255))
(define-fun .def_257 () Bool (and .def_76 .def_256))
(define-fun .def_258 () Bool (and .def_78 .def_257))
(define-fun .def_259 () Bool (and .def_82 .def_258))
(define-fun .def_260 () Bool (and .def_84 .def_259))
(define-fun .def_261 () Bool (and .def_86 .def_260))
(define-fun .def_262 () Bool (and .def_88 .def_261))
(define-fun .def_263 () Bool (and .def_90 .def_262))
(define-fun .def_265 () Bool (and .def_263 .def_264))
(define-fun .def_267 () Bool (and .def_265 .def_266))
(define-fun .def_271 () Bool (and .def_267 .def_270))
(define-fun .def_273 () Bool (and .def_271 .def_272))
(define-fun .def_214 () Bool (<= .def_213 0))
(define-fun .def_215 () Bool (not .def_214))
(define-fun .def_216 () Bool (or .def_81 .def_215))
(define-fun .def_274 () Bool (and .def_216 .def_273))
(define-fun .def_219 () Bool (= .def_8 5))
(define-fun .def_275 () Bool (and .def_219 .def_274))
(define-fun .def_595 () Bool (or .def_275 .def_594))
(define-fun .def_58 () Bool (= .def_24 .x.20))
(define-fun .def_56 () Bool (= .def_22 .x.19))
(define-fun .def_145 () Bool (and .def_56 .def_58))
(define-fun .def_596 () Bool (and .def_145 .def_595))
(define-fun .def_248 () Bool (= .x.19 0))
(define-fun .def_246 () Bool (= .x.20 .def_222))
(define-fun .def_228 () Bool (and .def_60 .def_227))
(define-fun .def_229 () Bool (and .def_62 .def_228))
(define-fun .def_230 () Bool (and .def_64 .def_229))
(define-fun .def_231 () Bool (and .def_66 .def_230))
(define-fun .def_232 () Bool (and .def_68 .def_231))
(define-fun .def_233 () Bool (and .def_70 .def_232))
(define-fun .def_234 () Bool (and .def_72 .def_233))
(define-fun .def_235 () Bool (and .def_74 .def_234))
(define-fun .def_236 () Bool (and .def_76 .def_235))
(define-fun .def_237 () Bool (and .def_78 .def_236))
(define-fun .def_238 () Bool (and .def_82 .def_237))
(define-fun .def_239 () Bool (and .def_84 .def_238))
(define-fun .def_240 () Bool (and .def_86 .def_239))
(define-fun .def_241 () Bool (and .def_88 .def_240))
(define-fun .def_242 () Bool (and .def_90 .def_241))
(define-fun .def_243 () Bool (and .def_211 .def_242))
(define-fun .def_244 () Bool (and .def_216 .def_243))
(define-fun .def_245 () Bool (and .def_219 .def_244))
(define-fun .def_247 () Bool (and .def_245 .def_246))
(define-fun .def_249 () Bool (and .def_247 .def_248))
(define-fun .def_195 () Bool (= .x.15 6))
(define-fun .def_250 () Bool (and .def_195 .def_249))
(define-fun .def_597 () Bool (or .def_250 .def_596))
(define-fun .def_223 () Bool (= .x.18 .def_222))
(define-fun .def_146 () Bool (and .def_60 .def_145))
(define-fun .def_147 () Bool (and .def_62 .def_146))
(define-fun .def_148 () Bool (and .def_64 .def_147))
(define-fun .def_149 () Bool (and .def_66 .def_148))
(define-fun .def_150 () Bool (and .def_68 .def_149))
(define-fun .def_151 () Bool (and .def_70 .def_150))
(define-fun .def_152 () Bool (and .def_72 .def_151))
(define-fun .def_153 () Bool (and .def_74 .def_152))
(define-fun .def_155 () Bool (and .def_153 .def_154))
(define-fun .def_156 () Bool (and .def_121 .def_155))
(define-fun .def_157 () Bool (and .def_76 .def_156))
(define-fun .def_158 () Bool (and .def_78 .def_157))
(define-fun .def_159 () Bool (and .def_82 .def_158))
(define-fun .def_160 () Bool (and .def_84 .def_159))
(define-fun .def_161 () Bool (and .def_86 .def_160))
(define-fun .def_162 () Bool (and .def_88 .def_161))
(define-fun .def_163 () Bool (and .def_90 .def_162))
(define-fun .def_165 () Bool (and .def_163 .def_164))
(define-fun .def_208 () Bool (and .def_165 .def_207))
(define-fun .def_212 () Bool (and .def_208 .def_211))
(define-fun .def_217 () Bool (and .def_212 .def_216))
(define-fun .def_220 () Bool (and .def_217 .def_219))
(define-fun .def_224 () Bool (and .def_220 .def_223))
(define-fun .def_598 () Bool (or .def_224 .def_597))
(define-fun .def_142 () Int (* (- 1) .def_22))
(define-fun .def_143 () Int (+ .def_12 .def_142))
(define-fun .def_144 () Bool (<= .def_143 1))
(define-fun .def_203 () Bool (not .def_144))
(define-fun .def_199 () Int (* (- 1) .x.19))
(define-fun .def_200 () Int (+ .def_22 .def_199))
(define-fun .def_201 () Bool (= .def_200 (- 1)))
(define-fun .def_167 () Int (+ .def_16 .def_22))
(define-fun .def_175 () (Array Int Int) (store .def_24 .def_167 47))
(define-fun .def_197 () Bool (= .x.20 .def_175))
(define-fun .def_180 () Bool (and .def_60 .def_179))
(define-fun .def_181 () Bool (and .def_62 .def_180))
(define-fun .def_182 () Bool (and .def_64 .def_181))
(define-fun .def_183 () Bool (and .def_66 .def_182))
(define-fun .def_184 () Bool (and .def_68 .def_183))
(define-fun .def_185 () Bool (and .def_70 .def_184))
(define-fun .def_186 () Bool (and .def_72 .def_185))
(define-fun .def_187 () Bool (and .def_74 .def_186))
(define-fun .def_188 () Bool (and .def_76 .def_187))
(define-fun .def_189 () Bool (and .def_78 .def_188))
(define-fun .def_190 () Bool (and .def_82 .def_189))
(define-fun .def_191 () Bool (and .def_84 .def_190))
(define-fun .def_192 () Bool (and .def_86 .def_191))
(define-fun .def_193 () Bool (and .def_88 .def_192))
(define-fun .def_194 () Bool (and .def_90 .def_193))
(define-fun .def_196 () Bool (and .def_194 .def_195))
(define-fun .def_198 () Bool (and .def_196 .def_197))
(define-fun .def_202 () Bool (and .def_198 .def_201))
(define-fun .def_204 () Bool (and .def_202 .def_203))
(define-fun .def_168 () Bool (<= .def_167 0))
(define-fun .def_169 () Bool (not .def_168))
(define-fun .def_170 () Bool (or .def_81 .def_169))
(define-fun .def_205 () Bool (and .def_170 .def_204))
(define-fun .def_173 () Bool (= .def_8 6))
(define-fun .def_206 () Bool (and .def_173 .def_205))
(define-fun .def_599 () Bool (or .def_206 .def_598))
(define-fun .def_176 () Bool (= .x.18 .def_175))
(define-fun .def_166 () Bool (and .def_144 .def_165))
(define-fun .def_171 () Bool (and .def_166 .def_170))
(define-fun .def_174 () Bool (and .def_171 .def_173))
(define-fun .def_177 () Bool (and .def_174 .def_176))
(define-fun .def_600 () Bool (or .def_177 .def_599))
(define-fun .def_134 () Int (* (- 1) .x.16))
(define-fun .def_135 () Int (+ .def_10 .def_134))
(define-fun .def_136 () Bool (= .def_135 (- 1)))
(define-fun .def_92 () Bool (<= .def_12 .def_10))
(define-fun .def_93 () Bool (not .def_92))
(define-fun .def_130 () Bool (and .def_14 .def_93))
(define-fun .def_131 () Bool (= .x.17 .def_130))
(define-fun .def_111 () Bool (and .def_54 .def_56))
(define-fun .def_112 () Bool (and .def_58 .def_111))
(define-fun .def_113 () Bool (and .def_60 .def_112))
(define-fun .def_114 () Bool (and .def_62 .def_113))
(define-fun .def_115 () Bool (and .def_64 .def_114))
(define-fun .def_116 () Bool (and .def_66 .def_115))
(define-fun .def_117 () Bool (and .def_68 .def_116))
(define-fun .def_118 () Bool (and .def_70 .def_117))
(define-fun .def_119 () Bool (and .def_72 .def_118))
(define-fun .def_120 () Bool (and .def_74 .def_119))
(define-fun .def_122 () Bool (and .def_120 .def_121))
(define-fun .def_123 () Bool (and .def_76 .def_122))
(define-fun .def_124 () Bool (and .def_78 .def_123))
(define-fun .def_125 () Bool (and .def_82 .def_124))
(define-fun .def_126 () Bool (and .def_84 .def_125))
(define-fun .def_127 () Bool (and .def_86 .def_126))
(define-fun .def_128 () Bool (and .def_88 .def_127))
(define-fun .def_129 () Bool (and .def_90 .def_128))
(define-fun .def_132 () Bool (and .def_129 .def_131))
(define-fun .def_137 () Bool (and .def_132 .def_136))
(define-fun .def_95 () Int (+ .def_10 .def_16))
(define-fun .def_104 () Int (select .def_18 .def_95))
(define-fun .def_105 () Bool (= .def_104 47))
(define-fun .def_138 () Bool (and .def_105 .def_137))
(define-fun .def_96 () Bool (<= .def_95 0))
(define-fun .def_97 () Bool (not .def_96))
(define-fun .def_98 () Bool (or .def_81 .def_97))
(define-fun .def_139 () Bool (and .def_98 .def_138))
(define-fun .def_101 () Bool (= .def_8 7))
(define-fun .def_140 () Bool (and .def_101 .def_139))
(define-fun .def_601 () Bool (or .def_140 .def_600))
(define-fun .def_109 () Bool (= .x.15 8))
(define-fun .def_106 () Bool (not .def_105))
(define-fun .def_51 () Bool (and .def_14 .def_50))
(define-fun .def_53 () Bool (and .def_51 .def_52))
(define-fun .def_55 () Bool (and .def_53 .def_54))
(define-fun .def_57 () Bool (and .def_55 .def_56))
(define-fun .def_59 () Bool (and .def_57 .def_58))
(define-fun .def_61 () Bool (and .def_59 .def_60))
(define-fun .def_63 () Bool (and .def_61 .def_62))
(define-fun .def_65 () Bool (and .def_63 .def_64))
(define-fun .def_67 () Bool (and .def_65 .def_66))
(define-fun .def_69 () Bool (and .def_67 .def_68))
(define-fun .def_71 () Bool (and .def_69 .def_70))
(define-fun .def_73 () Bool (and .def_71 .def_72))
(define-fun .def_75 () Bool (and .def_73 .def_74))
(define-fun .def_77 () Bool (and .def_75 .def_76))
(define-fun .def_79 () Bool (and .def_77 .def_78))
(define-fun .def_83 () Bool (and .def_79 .def_82))
(define-fun .def_85 () Bool (and .def_83 .def_84))
(define-fun .def_87 () Bool (and .def_85 .def_86))
(define-fun .def_89 () Bool (and .def_87 .def_88))
(define-fun .def_91 () Bool (and .def_89 .def_90))
(define-fun .def_94 () Bool (and .def_91 .def_93))
(define-fun .def_99 () Bool (and .def_94 .def_98))
(define-fun .def_102 () Bool (and .def_99 .def_101))
(define-fun .def_107 () Bool (and .def_102 .def_106))
(define-fun .def_110 () Bool (and .def_107 .def_109))
(define-fun .def_602 () Bool (or .def_110 .def_601))
(define-fun .def_604 () Bool (! (and .def_602 .def_603) :trans true))
(define-fun .def_605 () Bool (= .def_8 8))
(define-fun .def_606 () Bool (! (not .def_605) :invar-property 0))
(assert true)
